FoodBank_SmallCase7P3Z.sol
# Solution for model Food_Bank
# Objective value = 7.9436031917205168e+04
x_1_1 1
x_1_2 1
x_1_3 1
x_1_4 1
x_1_5 1
x_1_6 1
x_1_7 1
y_1_1 0
y_1_2 0
y_1_3 1
y_2_1 0
y_2_2 0
y_2_3 1
y_3_1 0
y_3_2 0
y_3_3 1
y_4_1 0
y_4_2 1
y_4_3 0
y_5_1 0
y_5_2 1
y_5_3 0
y_6_1 1
y_6_2 0
y_6_3 0
y_7_1 1
y_7_2 0
y_7_3 0
aFP_1_1 1.8591451107369387e+04
aFP_1_2 1.8589288568422235e+04
aFP_1_3 1.7537495324234922e+04
aFP_1_4 2.6900706666666672e+04
aFP_1_5 20000
aFP_1_6 2.6784434356647493e+04
aFP_1_7 2.9444766491214355e+04
aPZ_1_1 0
aPZ_2_1 0
aPZ_3_1 0
aPZ_4_1 0
aPZ_5_1 0
aPZ_6_1 2.6784434356647522e+04
aPZ_7_1 29444.7664912144
aPZ_1_2 0
aPZ_2_2 0
aPZ_3_2 0
aPZ_4_2 2.6900706666666672e+04
aPZ_5_2 20000
aPZ_6_2 0
aPZ_7_2 0
aPZ_1_3 1.8591451107369387e+04
aPZ_2_3 1.8589288568422235e+04
aPZ_3_3 1.7537495324234922e+04
aPZ_4_3 0
aPZ_5_3 0
aPZ_6_3 0
aPZ_7_3 0
nT_1_1 2
nT_1_2 2
nT_1_3 2
nT_1_4 3
nT_1_5 2
nT_1_6 3
nT_1_7 3
ort_1_1 30
ort_1_2 30
ort_1_3 30
ort_1_4 80
ort_1_5 80
ort_1_6 6.0015618742815306e+01
ort_1_7 6.0015618742791148e+01
opt_1_1 1.7776386692347124e+01
opt_1_2 1.8484334080544240e+01
opt_1_3 2.0384834969065356e+01
opt_1_4 3.1939920172043010e+01
opt_1_5 2.6903225806451612e+01
opt_1_6 3.1427547485318073e+01
opt_1_7 2.8588071257487648e+01
dt_1_1 0
dt_1_2 0
dt_1_3 1.9806989695111962e+01
dt_2_1 0
dt_2_2 0
dt_2_3 1.9808175335829624e+01
dt_3_1 0
dt_3_2 0
dt_3_3 2.0384834969065359e+01
dt_4_1 0
dt_4_2 3.4114624569978048e+01
dt_4_3 0
dt_5_1 0
dt_5_2 4.5885375430018321e+01
dt_5_3 0
dt_6_1 3.1427547485317326e+01
dt_6_2 0
dt_6_3 0
dt_7_1 2.8588071257486895e+01
dt_7_2 0
dt_7_3 0
ut_1_1 1.4873160885895510e+01
ut_1_2 1.4871430854737788e+01
ut_1_3 1.4029996259387937e+01
ut_1_4 2.1520565333333337e+01
ut_1_5 16
ut_1_6 2.1427547485317994e+01
ut_1_7 2.3555813192971485e+01
fFP_1_1 8
fFP_1_2 8
fFP_1_3 8
fFP_1_4 3
fFP_1_5 3
fFP_1_6 4
fFP_1_7 4
dt_1_1_1 0
dt_1_1_2 0
dt_1_1_3 1.5845591756089570e+02
dt_1_2_1 0
dt_1_2_2 0
dt_1_2_3 158.465402686637
dt_1_3_1 0
dt_1_3_2 0
dt_1_3_3 1.6307867975252287e+02
dt_1_4_1 0
dt_1_4_2 1.0234387370993414e+02
dt_1_4_3 0
dt_1_5_1 0
dt_1_5_2 1.3765612629005497e+02
dt_1_5_3 0
dt_1_6_1 1.2571018994109758e+02
dt_1_6_2 0
dt_1_6_3 0
dt_1_7_1 1.1435228502975896e+02
dt_1_7_2 0
dt_1_7_3 0
